30	100	100	100
69	82	14
78	97	18
99	70	22
95	66	45
95	67	28
76	72	1
72	68	5
94	66	6
83	95	49
87	71	44
89	96	42
97	73	18
79	91	5
72	75	22
93	80	43
74	79	30
67	92	29
94	69	18
91	69	15
71	98	10
80	73	1
82	70	23
93	96	39
77	83	11
93	81	37
66	73	3
91	94	12
70	76	37
96	81	19
91	83	18
